c description: Random 3-CNF over 21 variables and 89 clauses
c generator: CNFgen (0.9.2)
c copyright: (C) 2012-2022 Massimo Lauria <massimo.lauria@uniroma1.it>
c url: https://massimolauria.net/cnfgen
c command line: cnfgen --output ../CNF/21_bit_89_42.cnf randkcnf 3 21 89
c
p cnf 21 89
-4 7 -15 0
4 10 -13 0
2 -9 -11 0
5 7 -10 0
-2 7 -15 0
6 -12 -17 0
-4 14 -18 0
1 12 -17 0
4 14 18 0
6 -9 15 0
8 -17 -18 0
2 15 17 0
1 11 19 0
4 -10 -18 0
12 15 -17 0
-3 -5 -13 0
10 12 15 0
-4 -9 18 0
8 12 -21 0
-1 -7 -21 0
5 7 -16 0
-2 12 -20 0
6 19 21 0
1 13 -15 0
-2 -7 15 0
1 -16 -19 0
8 9 14 0
-4 9 -21 0
-1 2 -5 0
-3 -7 -16 0
-5 -10 21 0
-8 15 -21 0
-5 10 19 0
-12 13 16 0
2 -3 5 0
14 15 16 0
8 10 12 0
-2 -4 8 0
-10 11 14 0
1 10 -18 0
-5 -10 13 0
-2 15 -19 0
3 -11 -21 0
-7 12 -17 0
3 6 12 0
5 -10 13 0
3 -8 -15 0
-3 13 -15 0
-7 16 17 0
1 -2 18 0
-1 13 -17 0
5 -15 -19 0
-9 -10 -18 0
-3 5 -6 0
-3 12 -20 0
1 -16 -20 0
2 7 -16 0
8 9 -10 0
-12 19 -20 0
-10 -12 20 0
3 8 -11 0
-2 13 16 0
-8 -9 -17 0
-1 -10 -20 0
4 5 -14 0
4 13 -17 0
-2 7 -20 0
-2 12 -18 0
-1 -6 21 0
-4 6 13 0
-10 14 19 0
-7 -18 19 0
4 8 -10 0
-6 12 -18 0
3 -5 8 0
-8 -13 16 0
14 19 -21 0
5 -16 -21 0
-7 11 18 0
1 14 21 0
6 -17 -19 0
-4 -13 20 0
-6 -11 -16 0
-4 -6 -12 0
-9 15 -18 0
-7 10 -18 0
-2 4 -16 0
-5 -8 -12 0
-4 8 15 0
